Route 1: 134 86 13 125 34 87 73 4 84
Route 2: 32 93 30 2 70 49 113 102
Route 3: 48 10 3 40 74 19 60 26
Route 4: 129 116 81 83 131 20 18 77 110 133
Route 5: 130 53 132 12 115 128 126 123
Route 6: 119 92 15 59 61 96 41 101
Route 7: 52 17 35 42 106 114 90 117
Route 8: 65 118 80 50 72 62 58 107 120
Route 9: 124 111 55 25 33 63 11 104
Route 10: 91 44 37 100 22 47 105 112 121
Route 11: 39 51 36 27 75 57 88 79
Route 12: 43 66 29 76 21 127 56 68 23 28 5 71 85 108 9 45 99 24 31 69 82 16 64 8
Route 13: 46 89 38 103 95 94 67 54 78 122 6 98 14 97 7 109
Cost 11582.08
